c
c
c
c
c
c
c
c
c
c
c
c
c
c
c
c
c
c
c
c
p cnf 576 2113
3 0
-7 0
-8 0
10 0
-13 0
28 0
-35 0
1 2 3 0
-1 -2 -3 0
2 3 4 0
-2 -3 -4 0
3 4 5 0
-3 -4 -5 0
4 5 6 0
-4 -5 -6 0
7 8 9 0
-7 -8 -9 0
8 9 10 0
-8 -9 -10 0
9 10 11 0
-9 -10 -11 0
10 11 12 0
-10 -11 -12 0
13 14 15 0
-13 -14 -15 0
14 15 16 0
-14 -15 -16 0
15 16 17 0
-15 -16 -17 0
16 17 18 0
-16 -17 -18 0
19 20 21 0
-19 -20 -21 0
20 21 22 0
-20 -21 -22 0
21 22 23 0
-21 -22 -23 0
22 23 24 0
-22 -23 -24 0
25 26 27 0
-25 -26 -27 0
26 27 28 0
-26 -27 -28 0
27 28 29 0
-27 -28 -29 0
28 29 30 0
-28 -29 -30 0
31 32 33 0
-31 -32 -33 0
32 33 34 0
-32 -33 -34 0
33 34 35 0
-33 -34 -35 0
34 35 36 0
-34 -35 -36 0
1 7 13 0
-1 -7 -13 0
2 8 14 0
-2 -8 -14 0
3 9 15 0
-3 -9 -15 0
4 10 16 0
-4 -10 -16 0
5 11 17 0
-5 -11 -17 0
6 12 18 0
-6 -12 -18 0
7 13 19 0
-7 -13 -19 0
8 14 20 0
-8 -14 -20 0
9 15 21 0
-9 -15 -21 0
10 16 22 0
-10 -16 -22 0
11 17 23 0
-11 -17 -23 0
12 18 24 0
-12 -18 -24 0
13 19 25 0
-13 -19 -25 0
14 20 26 0
-14 -20 -26 0
15 21 27 0
-15 -21 -27 0
16 22 28 0
-16 -22 -28 0
17 23 29 0
-17 -23 -29 0
18 24 30 0
-18 -24 -30 0
19 25 31 0
-19 -25 -31 0
20 26 32 0
-20 -26 -32 0
21 27 33 0
-21 -27 -33 0
22 28 34 0
-22 -28 -34 0
23 29 35 0
-23 -29 -35 0
24 30 36 0
-24 -30 -36 0
1 2 3 4 0
-1 -2 -3 -4 0
1 2 3 5 0
-1 -2 -3 -5 0
1 2 3 6 0
-1 -2 -3 -6 0
1 2 4 5 0
-1 -2 -4 -5 0
1 2 4 6 0
-1 -2 -4 -6 0
1 2 5 6 0
-1 -2 -5 -6 0
1 3 4 5 0
-1 -3 -4 -5 0
1 3 4 6 0
-1 -3 -4 -6 0
1 3 5 6 0
-1 -3 -5 -6 0
1 4 5 6 0
-1 -4 -5 -6 0
2 3 4 5 0
-2 -3 -4 -5 0
2 3 4 6 0
-2 -3 -4 -6 0
2 3 5 6 0
-2 -3 -5 -6 0
2 4 5 6 0
-2 -4 -5 -6 0
3 4 5 6 0
-3 -4 -5 -6 0
7 8 9 10 0
-7 -8 -9 -10 0
7 8 9 11 0
-7 -8 -9 -11 0
7 8 9 12 0
-7 -8 -9 -12 0
7 8 10 11 0
-7 -8 -10 -11 0
7 8 10 12 0
-7 -8 -10 -12 0
7 8 11 12 0
-7 -8 -11 -12 0
7 9 10 11 0
-7 -9 -10 -11 0
7 9 10 12 0
-7 -9 -10 -12 0
7 9 11 12 0
-7 -9 -11 -12 0
7 10 11 12 0
-7 -10 -11 -12 0
8 9 10 11 0
-8 -9 -10 -11 0
8 9 10 12 0
-8 -9 -10 -12 0
8 9 11 12 0
-8 -9 -11 -12 0
8 10 11 12 0
-8 -10 -11 -12 0
9 10 11 12 0
-9 -10 -11 -12 0
13 14 15 16 0
-13 -14 -15 -16 0
13 14 15 17 0
-13 -14 -15 -17 0
13 14 15 18 0
-13 -14 -15 -18 0
13 14 16 17 0
-13 -14 -16 -17 0
13 14 16 18 0
-13 -14 -16 -18 0
13 14 17 18 0
-13 -14 -17 -18 0
13 15 16 17 0
-13 -15 -16 -17 0
13 15 16 18 0
-13 -15 -16 -18 0
13 15 17 18 0
-13 -15 -17 -18 0
13 16 17 18 0
-13 -16 -17 -18 0
14 15 16 17 0
-14 -15 -16 -17 0
14 15 16 18 0
-14 -15 -16 -18 0
14 15 17 18 0
-14 -15 -17 -18 0
14 16 17 18 0
-14 -16 -17 -18 0
15 16 17 18 0
-15 -16 -17 -18 0
19 20 21 22 0
-19 -20 -21 -22 0
19 20 21 23 0
-19 -20 -21 -23 0
19 20 21 24 0
-19 -20 -21 -24 0
19 20 22 23 0
-19 -20 -22 -23 0
19 20 22 24 0
-19 -20 -22 -24 0
19 20 23 24 0
-19 -20 -23 -24 0
19 21 22 23 0
-19 -21 -22 -23 0
19 21 22 24 0
-19 -21 -22 -24 0
19 21 23 24 0
-19 -21 -23 -24 0
19 22 23 24 0
-19 -22 -23 -24 0
20 21 22 23 0
-20 -21 -22 -23 0
20 21 22 24 0
-20 -21 -22 -24 0
20 21 23 24 0
-20 -21 -23 -24 0
20 22 23 24 0
-20 -22 -23 -24 0
21 22 23 24 0
-21 -22 -23 -24 0
25 26 27 28 0
-25 -26 -27 -28 0
25 26 27 29 0
-25 -26 -27 -29 0
25 26 27 30 0
-25 -26 -27 -30 0
25 26 28 29 0
-25 -26 -28 -29 0
25 26 28 30 0
-25 -26 -28 -30 0
25 26 29 30 0
-25 -26 -29 -30 0
25 27 28 29 0
-25 -27 -28 -29 0
25 27 28 30 0
-25 -27 -28 -30 0
25 27 29 30 0
-25 -27 -29 -30 0
25 28 29 30 0
-25 -28 -29 -30 0
26 27 28 29 0
-26 -27 -28 -29 0
26 27 28 30 0
-26 -27 -28 -30 0
26 27 29 30 0
-26 -27 -29 -30 0
26 28 29 30 0
-26 -28 -29 -30 0
27 28 29 30 0
-27 -28 -29 -30 0
31 32 33 34 0
-31 -32 -33 -34 0
31 32 33 35 0
-31 -32 -33 -35 0
31 32 33 36 0
-31 -32 -33 -36 0
31 32 34 35 0
-31 -32 -34 -35 0
31 32 34 36 0
-31 -32 -34 -36 0
31 32 35 36 0
-31 -32 -35 -36 0
31 33 34 35 0
-31 -33 -34 -35 0
31 33 34 36 0
-31 -33 -34 -36 0
31 33 35 36 0
-31 -33 -35 -36 0
31 34 35 36 0
-31 -34 -35 -36 0
32 33 34 35 0
-32 -33 -34 -35 0
32 33 34 36 0
-32 -33 -34 -36 0
32 33 35 36 0
-32 -33 -35 -36 0
32 34 35 36 0
-32 -34 -35 -36 0
33 34 35 36 0
-33 -34 -35 -36 0
1 7 13 19 0
-1 -7 -13 -19 0
1 7 13 25 0
-1 -7 -13 -25 0
1 7 13 31 0
-1 -7 -13 -31 0
1 7 19 25 0
-1 -7 -19 -25 0
1 7 19 31 0
-1 -7 -19 -31 0
1 7 25 31 0
-1 -7 -25 -31 0
1 13 19 25 0
-1 -13 -19 -25 0
1 13 19 31 0
-1 -13 -19 -31 0
1 13 25 31 0
-1 -13 -25 -31 0
1 19 25 31 0
-1 -19 -25 -31 0
7 13 19 25 0
-7 -13 -19 -25 0
7 13 19 31 0
-7 -13 -19 -31 0
7 13 25 31 0
-7 -13 -25 -31 0
7 19 25 31 0
-7 -19 -25 -31 0
13 19 25 31 0
-13 -19 -25 -31 0
2 8 14 20 0
-2 -8 -14 -20 0
2 8 14 26 0
-2 -8 -14 -26 0
2 8 14 32 0
-2 -8 -14 -32 0
2 8 20 26 0
-2 -8 -20 -26 0
2 8 20 32 0
-2 -8 -20 -32 0
2 8 26 32 0
-2 -8 -26 -32 0
2 14 20 26 0
-2 -14 -20 -26 0
2 14 20 32 0
-2 -14 -20 -32 0
2 14 26 32 0
-2 -14 -26 -32 0
2 20 26 32 0
-2 -20 -26 -32 0
8 14 20 26 0
-8 -14 -20 -26 0
8 14 20 32 0
-8 -14 -20 -32 0
8 14 26 32 0
-8 -14 -26 -32 0
8 20 26 32 0
-8 -20 -26 -32 0
14 20 26 32 0
-14 -20 -26 -32 0
3 9 15 21 0
-3 -9 -15 -21 0
3 9 15 27 0
-3 -9 -15 -27 0
3 9 15 33 0
-3 -9 -15 -33 0
3 9 21 27 0
-3 -9 -21 -27 0
3 9 21 33 0
-3 -9 -21 -33 0
3 9 27 33 0
-3 -9 -27 -33 0
3 15 21 27 0
-3 -15 -21 -27 0
3 15 21 33 0
-3 -15 -21 -33 0
3 15 27 33 0
-3 -15 -27 -33 0
3 21 27 33 0
-3 -21 -27 -33 0
9 15 21 27 0
-9 -15 -21 -27 0
9 15 21 33 0
-9 -15 -21 -33 0
9 15 27 33 0
-9 -15 -27 -33 0
9 21 27 33 0
-9 -21 -27 -33 0
15 21 27 33 0
-15 -21 -27 -33 0
4 10 16 22 0
-4 -10 -16 -22 0
4 10 16 28 0
-4 -10 -16 -28 0
4 10 16 34 0
-4 -10 -16 -34 0
4 10 22 28 0
-4 -10 -22 -28 0
4 10 22 34 0
-4 -10 -22 -34 0
4 10 28 34 0
-4 -10 -28 -34 0
4 16 22 28 0
-4 -16 -22 -28 0
4 16 22 34 0
-4 -16 -22 -34 0
4 16 28 34 0
-4 -16 -28 -34 0
4 22 28 34 0
-4 -22 -28 -34 0
10 16 22 28 0
-10 -16 -22 -28 0
10 16 22 34 0
-10 -16 -22 -34 0
10 16 28 34 0
-10 -16 -28 -34 0
10 22 28 34 0
-10 -22 -28 -34 0
16 22 28 34 0
-16 -22 -28 -34 0
5 11 17 23 0
-5 -11 -17 -23 0
5 11 17 29 0
-5 -11 -17 -29 0
5 11 17 35 0
-5 -11 -17 -35 0
5 11 23 29 0
-5 -11 -23 -29 0
5 11 23 35 0
-5 -11 -23 -35 0
5 11 29 35 0
-5 -11 -29 -35 0
5 17 23 29 0
-5 -17 -23 -29 0
5 17 23 35 0
-5 -17 -23 -35 0
5 17 29 35 0
-5 -17 -29 -35 0
5 23 29 35 0
-5 -23 -29 -35 0
11 17 23 29 0
-11 -17 -23 -29 0
11 17 23 35 0
-11 -17 -23 -35 0
11 17 29 35 0
-11 -17 -29 -35 0
11 23 29 35 0
-11 -23 -29 -35 0
17 23 29 35 0
-17 -23 -29 -35 0
6 12 18 24 0
-6 -12 -18 -24 0
6 12 18 30 0
-6 -12 -18 -30 0
6 12 18 36 0
-6 -12 -18 -36 0
6 12 24 30 0
-6 -12 -24 -30 0
6 12 24 36 0
-6 -12 -24 -36 0
6 12 30 36 0
-6 -12 -30 -36 0
6 18 24 30 0
-6 -18 -24 -30 0
6 18 24 36 0
-6 -18 -24 -36 0
6 18 30 36 0
-6 -18 -30 -36 0
6 24 30 36 0
-6 -24 -30 -36 0
12 18 24 30 0
-12 -18 -24 -30 0
12 18 24 36 0
-12 -18 -24 -36 0
12 18 30 36 0
-12 -18 -30 -36 0
12 24 30 36 0
-12 -24 -30 -36 0
18 24 30 36 0
-18 -24 -30 -36 0
1 -37 0
7 -37 0
-1 -7 37 0
-1 -38 0
-7 -38 0
1 7 38 0
-37 39 0
-38 39 0
38 37 -39 0
2 -40 0
8 -40 0
-2 -8 40 0
-2 -41 0
-8 -41 0
2 8 41 0
-40 42 0
-41 42 0
41 40 -42 0
3 -43 0
9 -43 0
-3 -9 43 0
-3 -44 0
-9 -44 0
3 9 44 0
-43 45 0
-44 45 0
44 43 -45 0
4 -46 0
10 -46 0
-4 -10 46 0
-4 -47 0
-10 -47 0
4 10 47 0
-46 48 0
-47 48 0
47 46 -48 0
5 -49 0
11 -49 0
-5 -11 49 0
-5 -50 0
-11 -50 0
5 11 50 0
-49 51 0
-50 51 0
50 49 -51 0
6 -52 0
12 -52 0
-6 -12 52 0
-6 -53 0
-12 -53 0
6 12 53 0
-52 54 0
-53 54 0
53 52 -54 0
-39 -42 -45 -48 -51 -54 0
1 -55 0
13 -55 0
-1 -13 55 0
-1 -56 0
-13 -56 0
1 13 56 0
-55 57 0
-56 57 0
56 55 -57 0
2 -58 0
14 -58 0
-2 -14 58 0
-2 -59 0
-14 -59 0
2 14 59 0
-58 60 0
-59 60 0
59 58 -60 0
3 -61 0
15 -61 0
-3 -15 61 0
-3 -62 0
-15 -62 0
3 15 62 0
-61 63 0
-62 63 0
62 61 -63 0
4 -64 0
16 -64 0
-4 -16 64 0
-4 -65 0
-16 -65 0
4 16 65 0
-64 66 0
-65 66 0
65 64 -66 0
5 -67 0
17 -67 0
-5 -17 67 0
-5 -68 0
-17 -68 0
5 17 68 0
-67 69 0
-68 69 0
68 67 -69 0
6 -70 0
18 -70 0
-6 -18 70 0
-6 -71 0
-18 -71 0
6 18 71 0
-70 72 0
-71 72 0
71 70 -72 0
-57 -60 -63 -66 -69 -72 0
1 -73 0
19 -73 0
-1 -19 73 0
-1 -74 0
-19 -74 0
1 19 74 0
-73 75 0
-74 75 0
74 73 -75 0
2 -76 0
20 -76 0
-2 -20 76 0
-2 -77 0
-20 -77 0
2 20 77 0
-76 78 0
-77 78 0
77 76 -78 0
3 -79 0
21 -79 0
-3 -21 79 0
-3 -80 0
-21 -80 0
3 21 80 0
-79 81 0
-80 81 0
80 79 -81 0
4 -82 0
22 -82 0
-4 -22 82 0
-4 -83 0
-22 -83 0
4 22 83 0
-82 84 0
-83 84 0
83 82 -84 0
5 -85 0
23 -85 0
-5 -23 85 0
-5 -86 0
-23 -86 0
5 23 86 0
-85 87 0
-86 87 0
86 85 -87 0
6 -88 0
24 -88 0
-6 -24 88 0
-6 -89 0
-24 -89 0
6 24 89 0
-88 90 0
-89 90 0
89 88 -90 0
-75 -78 -81 -84 -87 -90 0
1 -91 0
25 -91 0
-1 -25 91 0
-1 -92 0
-25 -92 0
1 25 92 0
-91 93 0
-92 93 0
92 91 -93 0
2 -94 0
26 -94 0
-2 -26 94 0
-2 -95 0
-26 -95 0
2 26 95 0
-94 96 0
-95 96 0
95 94 -96 0
3 -97 0
27 -97 0
-3 -27 97 0
-3 -98 0
-27 -98 0
3 27 98 0
-97 99 0
-98 99 0
98 97 -99 0
4 -100 0
28 -100 0
-4 -28 100 0
-4 -101 0
-28 -101 0
4 28 101 0
-100 102 0
-101 102 0
101 100 -102 0
5 -103 0
29 -103 0
-5 -29 103 0
-5 -104 0
-29 -104 0
5 29 104 0
-103 105 0
-104 105 0
104 103 -105 0
6 -106 0
30 -106 0
-6 -30 106 0
-6 -107 0
-30 -107 0
6 30 107 0
-106 108 0
-107 108 0
107 106 -108 0
-93 -96 -99 -102 -105 -108 0
1 -109 0
31 -109 0
-1 -31 109 0
-1 -110 0
-31 -110 0
1 31 110 0
-109 111 0
-110 111 0
110 109 -111 0
2 -112 0
32 -112 0
-2 -32 112 0
-2 -113 0
-32 -113 0
2 32 113 0
-112 114 0
-113 114 0
113 112 -114 0
3 -115 0
33 -115 0
-3 -33 115 0
-3 -116 0
-33 -116 0
3 33 116 0
-115 117 0
-116 117 0
116 115 -117 0
4 -118 0
34 -118 0
-4 -34 118 0
-4 -119 0
-34 -119 0
4 34 119 0
-118 120 0
-119 120 0
119 118 -120 0
5 -121 0
35 -121 0
-5 -35 121 0
-5 -122 0
-35 -122 0
5 35 122 0
-121 123 0
-122 123 0
122 121 -123 0
6 -124 0
36 -124 0
-6 -36 124 0
-6 -125 0
-36 -125 0
6 36 125 0
-124 126 0
-125 126 0
125 124 -126 0
-111 -114 -117 -120 -123 -126 0
7 -127 0
13 -127 0
-7 -13 127 0
-7 -128 0
-13 -128 0
7 13 128 0
-127 129 0
-128 129 0
128 127 -129 0
8 -130 0
14 -130 0
-8 -14 130 0
-8 -131 0
-14 -131 0
8 14 131 0
-130 132 0
-131 132 0
131 130 -132 0
9 -133 0
15 -133 0
-9 -15 133 0
-9 -134 0
-15 -134 0
9 15 134 0
-133 135 0
-134 135 0
134 133 -135 0
10 -136 0
16 -136 0
-10 -16 136 0
-10 -137 0
-16 -137 0
10 16 137 0
-136 138 0
-137 138 0
137 136 -138 0
11 -139 0
17 -139 0
-11 -17 139 0
-11 -140 0
-17 -140 0
11 17 140 0
-139 141 0
-140 141 0
140 139 -141 0
12 -142 0
18 -142 0
-12 -18 142 0
-12 -143 0
-18 -143 0
12 18 143 0
-142 144 0
-143 144 0
143 142 -144 0
-129 -132 -135 -138 -141 -144 0
7 -145 0
19 -145 0
-7 -19 145 0
-7 -146 0
-19 -146 0
7 19 146 0
-145 147 0
-146 147 0
146 145 -147 0
8 -148 0
20 -148 0
-8 -20 148 0
-8 -149 0
-20 -149 0
8 20 149 0
-148 150 0
-149 150 0
149 148 -150 0
9 -151 0
21 -151 0
-9 -21 151 0
-9 -152 0
-21 -152 0
9 21 152 0
-151 153 0
-152 153 0
152 151 -153 0
10 -154 0
22 -154 0
-10 -22 154 0
-10 -155 0
-22 -155 0
10 22 155 0
-154 156 0
-155 156 0
155 154 -156 0
11 -157 0
23 -157 0
-11 -23 157 0
-11 -158 0
-23 -158 0
11 23 158 0
-157 159 0
-158 159 0
158 157 -159 0
12 -160 0
24 -160 0
-12 -24 160 0
-12 -161 0
-24 -161 0
12 24 161 0
-160 162 0
-161 162 0
161 160 -162 0
-147 -150 -153 -156 -159 -162 0
7 -163 0
25 -163 0
-7 -25 163 0
-7 -164 0
-25 -164 0
7 25 164 0
-163 165 0
-164 165 0
164 163 -165 0
8 -166 0
26 -166 0
-8 -26 166 0
-8 -167 0
-26 -167 0
8 26 167 0
-166 168 0
-167 168 0
167 166 -168 0
9 -169 0
27 -169 0
-9 -27 169 0
-9 -170 0
-27 -170 0
9 27 170 0
-169 171 0
-170 171 0
170 169 -171 0
10 -172 0
28 -172 0
-10 -28 172 0
-10 -173 0
-28 -173 0
10 28 173 0
-172 174 0
-173 174 0
173 172 -174 0
11 -175 0
29 -175 0
-11 -29 175 0
-11 -176 0
-29 -176 0
11 29 176 0
-175 177 0
-176 177 0
176 175 -177 0
12 -178 0
30 -178 0
-12 -30 178 0
-12 -179 0
-30 -179 0
12 30 179 0
-178 180 0
-179 180 0
179 178 -180 0
-165 -168 -171 -174 -177 -180 0
7 -181 0
31 -181 0
-7 -31 181 0
-7 -182 0
-31 -182 0
7 31 182 0
-181 183 0
-182 183 0
182 181 -183 0
8 -184 0
32 -184 0
-8 -32 184 0
-8 -185 0
-32 -185 0
8 32 185 0
-184 186 0
-185 186 0
185 184 -186 0
9 -187 0
33 -187 0
-9 -33 187 0
-9 -188 0
-33 -188 0
9 33 188 0
-187 189 0
-188 189 0
188 187 -189 0
10 -190 0
34 -190 0
-10 -34 190 0
-10 -191 0
-34 -191 0
10 34 191 0
-190 192 0
-191 192 0
191 190 -192 0
11 -193 0
35 -193 0
-11 -35 193 0
-11 -194 0
-35 -194 0
11 35 194 0
-193 195 0
-194 195 0
194 193 -195 0
12 -196 0
36 -196 0
-12 -36 196 0
-12 -197 0
-36 -197 0
12 36 197 0
-196 198 0
-197 198 0
197 196 -198 0
-183 -186 -189 -192 -195 -198 0
13 -199 0
19 -199 0
-13 -19 199 0
-13 -200 0
-19 -200 0
13 19 200 0
-199 201 0
-200 201 0
200 199 -201 0
14 -202 0
20 -202 0
-14 -20 202 0
-14 -203 0
-20 -203 0
14 20 203 0
-202 204 0
-203 204 0
203 202 -204 0
15 -205 0
21 -205 0
-15 -21 205 0
-15 -206 0
-21 -206 0
15 21 206 0
-205 207 0
-206 207 0
206 205 -207 0
16 -208 0
22 -208 0
-16 -22 208 0
-16 -209 0
-22 -209 0
16 22 209 0
-208 210 0
-209 210 0
209 208 -210 0
17 -211 0
23 -211 0
-17 -23 211 0
-17 -212 0
-23 -212 0
17 23 212 0
-211 213 0
-212 213 0
212 211 -213 0
18 -214 0
24 -214 0
-18 -24 214 0
-18 -215 0
-24 -215 0
18 24 215 0
-214 216 0
-215 216 0
215 214 -216 0
-201 -204 -207 -210 -213 -216 0
13 -217 0
25 -217 0
-13 -25 217 0
-13 -218 0
-25 -218 0
13 25 218 0
-217 219 0
-218 219 0
218 217 -219 0
14 -220 0
26 -220 0
-14 -26 220 0
-14 -221 0
-26 -221 0
14 26 221 0
-220 222 0
-221 222 0
221 220 -222 0
15 -223 0
27 -223 0
-15 -27 223 0
-15 -224 0
-27 -224 0
15 27 224 0
-223 225 0
-224 225 0
224 223 -225 0
16 -226 0
28 -226 0
-16 -28 226 0
-16 -227 0
-28 -227 0
16 28 227 0
-226 228 0
-227 228 0
227 226 -228 0
17 -229 0
29 -229 0
-17 -29 229 0
-17 -230 0
-29 -230 0
17 29 230 0
-229 231 0
-230 231 0
230 229 -231 0
18 -232 0
30 -232 0
-18 -30 232 0
-18 -233 0
-30 -233 0
18 30 233 0
-232 234 0
-233 234 0
233 232 -234 0
-219 -222 -225 -228 -231 -234 0
13 -235 0
31 -235 0
-13 -31 235 0
-13 -236 0
-31 -236 0
13 31 236 0
-235 237 0
-236 237 0
236 235 -237 0
14 -238 0
32 -238 0
-14 -32 238 0
-14 -239 0
-32 -239 0
14 32 239 0
-238 240 0
-239 240 0
239 238 -240 0
15 -241 0
33 -241 0
-15 -33 241 0
-15 -242 0
-33 -242 0
15 33 242 0
-241 243 0
-242 243 0
242 241 -243 0
16 -244 0
34 -244 0
-16 -34 244 0
-16 -245 0
-34 -245 0
16 34 245 0
-244 246 0
-245 246 0
245 244 -246 0
17 -247 0
35 -247 0
-17 -35 247 0
-17 -248 0
-35 -248 0
17 35 248 0
-247 249 0
-248 249 0
248 247 -249 0
18 -250 0
36 -250 0
-18 -36 250 0
-18 -251 0
-36 -251 0
18 36 251 0
-250 252 0
-251 252 0
251 250 -252 0
-237 -240 -243 -246 -249 -252 0
19 -253 0
25 -253 0
-19 -25 253 0
-19 -254 0
-25 -254 0
19 25 254 0
-253 255 0
-254 255 0
254 253 -255 0
20 -256 0
26 -256 0
-20 -26 256 0
-20 -257 0
-26 -257 0
20 26 257 0
-256 258 0
-257 258 0
257 256 -258 0
21 -259 0
27 -259 0
-21 -27 259 0
-21 -260 0
-27 -260 0
21 27 260 0
-259 261 0
-260 261 0
260 259 -261 0
22 -262 0
28 -262 0
-22 -28 262 0
-22 -263 0
-28 -263 0
22 28 263 0
-262 264 0
-263 264 0
263 262 -264 0
23 -265 0
29 -265 0
-23 -29 265 0
-23 -266 0
-29 -266 0
23 29 266 0
-265 267 0
-266 267 0
266 265 -267 0
24 -268 0
30 -268 0
-24 -30 268 0
-24 -269 0
-30 -269 0
24 30 269 0
-268 270 0
-269 270 0
269 268 -270 0
-255 -258 -261 -264 -267 -270 0
19 -271 0
31 -271 0
-19 -31 271 0
-19 -272 0
-31 -272 0
19 31 272 0
-271 273 0
-272 273 0
272 271 -273 0
20 -274 0
32 -274 0
-20 -32 274 0
-20 -275 0
-32 -275 0
20 32 275 0
-274 276 0
-275 276 0
275 274 -276 0
21 -277 0
33 -277 0
-21 -33 277 0
-21 -278 0
-33 -278 0
21 33 278 0
-277 279 0
-278 279 0
278 277 -279 0
22 -280 0
34 -280 0
-22 -34 280 0
-22 -281 0
-34 -281 0
22 34 281 0
-280 282 0
-281 282 0
281 280 -282 0
23 -283 0
35 -283 0
-23 -35 283 0
-23 -284 0
-35 -284 0
23 35 284 0
-283 285 0
-284 285 0
284 283 -285 0
24 -286 0
36 -286 0
-24 -36 286 0
-24 -287 0
-36 -287 0
24 36 287 0
-286 288 0
-287 288 0
287 286 -288 0
-273 -276 -279 -282 -285 -288 0
25 -289 0
31 -289 0
-25 -31 289 0
-25 -290 0
-31 -290 0
25 31 290 0
-289 291 0
-290 291 0
290 289 -291 0
26 -292 0
32 -292 0
-26 -32 292 0
-26 -293 0
-32 -293 0
26 32 293 0
-292 294 0
-293 294 0
293 292 -294 0
27 -295 0
33 -295 0
-27 -33 295 0
-27 -296 0
-33 -296 0
27 33 296 0
-295 297 0
-296 297 0
296 295 -297 0
28 -298 0
34 -298 0
-28 -34 298 0
-28 -299 0
-34 -299 0
28 34 299 0
-298 300 0
-299 300 0
299 298 -300 0
29 -301 0
35 -301 0
-29 -35 301 0
-29 -302 0
-35 -302 0
29 35 302 0
-301 303 0
-302 303 0
302 301 -303 0
30 -304 0
36 -304 0
-30 -36 304 0
-30 -305 0
-36 -305 0
30 36 305 0
-304 306 0
-305 306 0
305 304 -306 0
-291 -294 -297 -300 -303 -306 0
1 -307 0
2 -307 0
-1 -2 307 0
-1 -308 0
-2 -308 0
1 2 308 0
-307 309 0
-308 309 0
308 307 -309 0
7 -310 0
8 -310 0
-7 -8 310 0
-7 -311 0
-8 -311 0
7 8 311 0
-310 312 0
-311 312 0
311 310 -312 0
13 -313 0
14 -313 0
-13 -14 313 0
-13 -314 0
-14 -314 0
13 14 314 0
-313 315 0
-314 315 0
314 313 -315 0
19 -316 0
20 -316 0
-19 -20 316 0
-19 -317 0
-20 -317 0
19 20 317 0
-316 318 0
-317 318 0
317 316 -318 0
25 -319 0
26 -319 0
-25 -26 319 0
-25 -320 0
-26 -320 0
25 26 320 0
-319 321 0
-320 321 0
320 319 -321 0
31 -322 0
32 -322 0
-31 -32 322 0
-31 -323 0
-32 -323 0
31 32 323 0
-322 324 0
-323 324 0
323 322 -324 0
-309 -312 -315 -318 -321 -324 0
1 -325 0
3 -325 0
-1 -3 325 0
-1 -326 0
-3 -326 0
1 3 326 0
-325 327 0
-326 327 0
326 325 -327 0
7 -328 0
9 -328 0
-7 -9 328 0
-7 -329 0
-9 -329 0
7 9 329 0
-328 330 0
-329 330 0
329 328 -330 0
13 -331 0
15 -331 0
-13 -15 331 0
-13 -332 0
-15 -332 0
13 15 332 0
-331 333 0
-332 333 0
332 331 -333 0
19 -334 0
21 -334 0
-19 -21 334 0
-19 -335 0
-21 -335 0
19 21 335 0
-334 336 0
-335 336 0
335 334 -336 0
25 -337 0
27 -337 0
-25 -27 337 0
-25 -338 0
-27 -338 0
25 27 338 0
-337 339 0
-338 339 0
338 337 -339 0
31 -340 0
33 -340 0
-31 -33 340 0
-31 -341 0
-33 -341 0
31 33 341 0
-340 342 0
-341 342 0
341 340 -342 0
-327 -330 -333 -336 -339 -342 0
1 -343 0
4 -343 0
-1 -4 343 0
-1 -344 0
-4 -344 0
1 4 344 0
-343 345 0
-344 345 0
344 343 -345 0
7 -346 0
10 -346 0
-7 -10 346 0
-7 -347 0
-10 -347 0
7 10 347 0
-346 348 0
-347 348 0
347 346 -348 0
13 -349 0
16 -349 0
-13 -16 349 0
-13 -350 0
-16 -350 0
13 16 350 0
-349 351 0
-350 351 0
350 349 -351 0
19 -352 0
22 -352 0
-19 -22 352 0
-19 -353 0
-22 -353 0
19 22 353 0
-352 354 0
-353 354 0
353 352 -354 0
25 -355 0
28 -355 0
-25 -28 355 0
-25 -356 0
-28 -356 0
25 28 356 0
-355 357 0
-356 357 0
356 355 -357 0
31 -358 0
34 -358 0
-31 -34 358 0
-31 -359 0
-34 -359 0
31 34 359 0
-358 360 0
-359 360 0
359 358 -360 0
-345 -348 -351 -354 -357 -360 0
1 -361 0
5 -361 0
-1 -5 361 0
-1 -362 0
-5 -362 0
1 5 362 0
-361 363 0
-362 363 0
362 361 -363 0
7 -364 0
11 -364 0
-7 -11 364 0
-7 -365 0
-11 -365 0
7 11 365 0
-364 366 0
-365 366 0
365 364 -366 0
13 -367 0
17 -367 0
-13 -17 367 0
-13 -368 0
-17 -368 0
13 17 368 0
-367 369 0
-368 369 0
368 367 -369 0
19 -370 0
23 -370 0
-19 -23 370 0
-19 -371 0
-23 -371 0
19 23 371 0
-370 372 0
-371 372 0
371 370 -372 0
25 -373 0
29 -373 0
-25 -29 373 0
-25 -374 0
-29 -374 0
25 29 374 0
-373 375 0
-374 375 0
374 373 -375 0
31 -376 0
35 -376 0
-31 -35 376 0
-31 -377 0
-35 -377 0
31 35 377 0
-376 378 0
-377 378 0
377 376 -378 0
-363 -366 -369 -372 -375 -378 0
1 -379 0
6 -379 0
-1 -6 379 0
-1 -380 0
-6 -380 0
1 6 380 0
-379 381 0
-380 381 0
380 379 -381 0
7 -382 0
12 -382 0
-7 -12 382 0
-7 -383 0
-12 -383 0
7 12 383 0
-382 384 0
-383 384 0
383 382 -384 0
13 -385 0
18 -385 0
-13 -18 385 0
-13 -386 0
-18 -386 0
13 18 386 0
-385 387 0
-386 387 0
386 385 -387 0
19 -388 0
24 -388 0
-19 -24 388 0
-19 -389 0
-24 -389 0
19 24 389 0
-388 390 0
-389 390 0
389 388 -390 0
25 -391 0
30 -391 0
-25 -30 391 0
-25 -392 0
-30 -392 0
25 30 392 0
-391 393 0
-392 393 0
392 391 -393 0
31 -394 0
36 -394 0
-31 -36 394 0
-31 -395 0
-36 -395 0
31 36 395 0
-394 396 0
-395 396 0
395 394 -396 0
-381 -384 -387 -390 -393 -396 0
2 -397 0
3 -397 0
-2 -3 397 0
-2 -398 0
-3 -398 0
2 3 398 0
-397 399 0
-398 399 0
398 397 -399 0
8 -400 0
9 -400 0
-8 -9 400 0
-8 -401 0
-9 -401 0
8 9 401 0
-400 402 0
-401 402 0
401 400 -402 0
14 -403 0
15 -403 0
-14 -15 403 0
-14 -404 0
-15 -404 0
14 15 404 0
-403 405 0
-404 405 0
404 403 -405 0
20 -406 0
21 -406 0
-20 -21 406 0
-20 -407 0
-21 -407 0
20 21 407 0
-406 408 0
-407 408 0
407 406 -408 0
26 -409 0
27 -409 0
-26 -27 409 0
-26 -410 0
-27 -410 0
26 27 410 0
-409 411 0
-410 411 0
410 409 -411 0
32 -412 0
33 -412 0
-32 -33 412 0
-32 -413 0
-33 -413 0
32 33 413 0
-412 414 0
-413 414 0
413 412 -414 0
-399 -402 -405 -408 -411 -414 0
2 -415 0
4 -415 0
-2 -4 415 0
-2 -416 0
-4 -416 0
2 4 416 0
-415 417 0
-416 417 0
416 415 -417 0
8 -418 0
10 -418 0
-8 -10 418 0
-8 -419 0
-10 -419 0
8 10 419 0
-418 420 0
-419 420 0
419 418 -420 0
14 -421 0
16 -421 0
-14 -16 421 0
-14 -422 0
-16 -422 0
14 16 422 0
-421 423 0
-422 423 0
422 421 -423 0
20 -424 0
22 -424 0
-20 -22 424 0
-20 -425 0
-22 -425 0
20 22 425 0
-424 426 0
-425 426 0
425 424 -426 0
26 -427 0
28 -427 0
-26 -28 427 0
-26 -428 0
-28 -428 0
26 28 428 0
-427 429 0
-428 429 0
428 427 -429 0
32 -430 0
34 -430 0
-32 -34 430 0
-32 -431 0
-34 -431 0
32 34 431 0
-430 432 0
-431 432 0
431 430 -432 0
-417 -420 -423 -426 -429 -432 0
2 -433 0
5 -433 0
-2 -5 433 0
-2 -434 0
-5 -434 0
2 5 434 0
-433 435 0
-434 435 0
434 433 -435 0
8 -436 0
11 -436 0
-8 -11 436 0
-8 -437 0
-11 -437 0
8 11 437 0
-436 438 0
-437 438 0
437 436 -438 0
14 -439 0
17 -439 0
-14 -17 439 0
-14 -440 0
-17 -440 0
14 17 440 0
-439 441 0
-440 441 0
440 439 -441 0
20 -442 0
23 -442 0
-20 -23 442 0
-20 -443 0
-23 -443 0
20 23 443 0
-442 444 0
-443 444 0
443 442 -444 0
26 -445 0
29 -445 0
-26 -29 445 0
-26 -446 0
-29 -446 0
26 29 446 0
-445 447 0
-446 447 0
446 445 -447 0
32 -448 0
35 -448 0
-32 -35 448 0
-32 -449 0
-35 -449 0
32 35 449 0
-448 450 0
-449 450 0
449 448 -450 0
-435 -438 -441 -444 -447 -450 0
2 -451 0
6 -451 0
-2 -6 451 0
-2 -452 0
-6 -452 0
2 6 452 0
-451 453 0
-452 453 0
452 451 -453 0
8 -454 0
12 -454 0
-8 -12 454 0
-8 -455 0
-12 -455 0
8 12 455 0
-454 456 0
-455 456 0
455 454 -456 0
14 -457 0
18 -457 0
-14 -18 457 0
-14 -458 0
-18 -458 0
14 18 458 0
-457 459 0
-458 459 0
458 457 -459 0
20 -460 0
24 -460 0
-20 -24 460 0
-20 -461 0
-24 -461 0
20 24 461 0
-460 462 0
-461 462 0
461 460 -462 0
26 -463 0
30 -463 0
-26 -30 463 0
-26 -464 0
-30 -464 0
26 30 464 0
-463 465 0
-464 465 0
464 463 -465 0
32 -466 0
36 -466 0
-32 -36 466 0
-32 -467 0
-36 -467 0
32 36 467 0
-466 468 0
-467 468 0
467 466 -468 0
-453 -456 -459 -462 -465 -468 0
3 -469 0
4 -469 0
-3 -4 469 0
-3 -470 0
-4 -470 0
3 4 470 0
-469 471 0
-470 471 0
470 469 -471 0
9 -472 0
10 -472 0
-9 -10 472 0
-9 -473 0
-10 -473 0
9 10 473 0
-472 474 0
-473 474 0
473 472 -474 0
15 -475 0
16 -475 0
-15 -16 475 0
-15 -476 0
-16 -476 0
15 16 476 0
-475 477 0
-476 477 0
476 475 -477 0
21 -478 0
22 -478 0
-21 -22 478 0
-21 -479 0
-22 -479 0
21 22 479 0
-478 480 0
-479 480 0
479 478 -480 0
27 -481 0
28 -481 0
-27 -28 481 0
-27 -482 0
-28 -482 0
27 28 482 0
-481 483 0
-482 483 0
482 481 -483 0
33 -484 0
34 -484 0
-33 -34 484 0
-33 -485 0
-34 -485 0
33 34 485 0
-484 486 0
-485 486 0
485 484 -486 0
-471 -474 -477 -480 -483 -486 0
3 -487 0
5 -487 0
-3 -5 487 0
-3 -488 0
-5 -488 0
3 5 488 0
-487 489 0
-488 489 0
488 487 -489 0
9 -490 0
11 -490 0
-9 -11 490 0
-9 -491 0
-11 -491 0
9 11 491 0
-490 492 0
-491 492 0
491 490 -492 0
15 -493 0
17 -493 0
-15 -17 493 0
-15 -494 0
-17 -494 0
15 17 494 0
-493 495 0
-494 495 0
494 493 -495 0
21 -496 0
23 -496 0
-21 -23 496 0
-21 -497 0
-23 -497 0
21 23 497 0
-496 498 0
-497 498 0
497 496 -498 0
27 -499 0
29 -499 0
-27 -29 499 0
-27 -500 0
-29 -500 0
27 29 500 0
-499 501 0
-500 501 0
500 499 -501 0
33 -502 0
35 -502 0
-33 -35 502 0
-33 -503 0
-35 -503 0
33 35 503 0
-502 504 0
-503 504 0
503 502 -504 0
-489 -492 -495 -498 -501 -504 0
3 -505 0
6 -505 0
-3 -6 505 0
-3 -506 0
-6 -506 0
3 6 506 0
-505 507 0
-506 507 0
506 505 -507 0
9 -508 0
12 -508 0
-9 -12 508 0
-9 -509 0
-12 -509 0
9 12 509 0
-508 510 0
-509 510 0
509 508 -510 0
15 -511 0
18 -511 0
-15 -18 511 0
-15 -512 0
-18 -512 0
15 18 512 0
-511 513 0
-512 513 0
512 511 -513 0
21 -514 0
24 -514 0
-21 -24 514 0
-21 -515 0
-24 -515 0
21 24 515 0
-514 516 0
-515 516 0
515 514 -516 0
27 -517 0
30 -517 0
-27 -30 517 0
-27 -518 0
-30 -518 0
27 30 518 0
-517 519 0
-518 519 0
518 517 -519 0
33 -520 0
36 -520 0
-33 -36 520 0
-33 -521 0
-36 -521 0
33 36 521 0
-520 522 0
-521 522 0
521 520 -522 0
-507 -510 -513 -516 -519 -522 0
4 -523 0
5 -523 0
-4 -5 523 0
-4 -524 0
-5 -524 0
4 5 524 0
-523 525 0
-524 525 0
524 523 -525 0
10 -526 0
11 -526 0
-10 -11 526 0
-10 -527 0
-11 -527 0
10 11 527 0
-526 528 0
-527 528 0
527 526 -528 0
16 -529 0
17 -529 0
-16 -17 529 0
-16 -530 0
-17 -530 0
16 17 530 0
-529 531 0
-530 531 0
530 529 -531 0
22 -532 0
23 -532 0
-22 -23 532 0
-22 -533 0
-23 -533 0
22 23 533 0
-532 534 0
-533 534 0
533 532 -534 0
28 -535 0
29 -535 0
-28 -29 535 0
-28 -536 0
-29 -536 0
28 29 536 0
-535 537 0
-536 537 0
536 535 -537 0
34 -538 0
35 -538 0
-34 -35 538 0
-34 -539 0
-35 -539 0
34 35 539 0
-538 540 0
-539 540 0
539 538 -540 0
-525 -528 -531 -534 -537 -540 0
4 -541 0
6 -541 0
-4 -6 541 0
-4 -542 0
-6 -542 0
4 6 542 0
-541 543 0
-542 543 0
542 541 -543 0
10 -544 0
12 -544 0
-10 -12 544 0
-10 -545 0
-12 -545 0
10 12 545 0
-544 546 0
-545 546 0
545 544 -546 0
16 -547 0
18 -547 0
-16 -18 547 0
-16 -548 0
-18 -548 0
16 18 548 0
-547 549 0
-548 549 0
548 547 -549 0
22 -550 0
24 -550 0
-22 -24 550 0
-22 -551 0
-24 -551 0
22 24 551 0
-550 552 0
-551 552 0
551 550 -552 0
28 -553 0
30 -553 0
-28 -30 553 0
-28 -554 0
-30 -554 0
28 30 554 0
-553 555 0
-554 555 0
554 553 -555 0
34 -556 0
36 -556 0
-34 -36 556 0
-34 -557 0
-36 -557 0
34 36 557 0
-556 558 0
-557 558 0
557 556 -558 0
-543 -546 -549 -552 -555 -558 0
5 -559 0
6 -559 0
-5 -6 559 0
-5 -560 0
-6 -560 0
5 6 560 0
-559 561 0
-560 561 0
560 559 -561 0
11 -562 0
12 -562 0
-11 -12 562 0
-11 -563 0
-12 -563 0
11 12 563 0
-562 564 0
-563 564 0
563 562 -564 0
17 -565 0
18 -565 0
-17 -18 565 0
-17 -566 0
-18 -566 0
17 18 566 0
-565 567 0
-566 567 0
566 565 -567 0
23 -568 0
24 -568 0
-23 -24 568 0
-23 -569 0
-24 -569 0
23 24 569 0
-568 570 0
-569 570 0
569 568 -570 0
29 -571 0
30 -571 0
-29 -30 571 0
-29 -572 0
-30 -572 0
29 30 572 0
-571 573 0
-572 573 0
572 571 -573 0
35 -574 0
36 -574 0
-35 -36 574 0
-35 -575 0
-36 -575 0
35 36 575 0
-574 576 0
-575 576 0
575 574 -576 0
-561 -564 -567 -570 -573 -576 0
